NAME:19_HardATSPLIB_19
TYPE: ATSP
DIMENSION: 19
EDGE_WEIGHT_TYPE: EXPLICIT
EDGE_WEIGHT_FORMAT: FULL_MATRIX
EDGE_WEIGHT_SECTION
0	61	48	85	85	0	85	81	81	77	77	73	69	69	69	65	65	61	0
135	0	39	28	219	87	24	20	20	15	15	12	7	7	7	3	3	0	39
148	13	0	37	181	48	37	33	33	29	29	25	21	21	21	17	17	13	0
111	24	11	0	192	59	0	0	3	3	7	7	7	12	15	15	20	20	11
63	24	63	52	0	63	0	0	3	3	7	7	7	12	15	15	20	20	63
196	61	48	85	133	0	85	81	81	77	77	73	69	69	69	65	65	61	0
111	24	63	52	196	111	0	0	3	3	7	7	7	12	15	15	20	20	63
115	24	63	52	200	111	3	0	3	3	7	7	7	12	15	15	20	20	63
115	20	59	48	200	107	3	0	0	0	3	3	3	7	12	12	15	15	59
118	20	59	48	204	107	7	3	3	0	3	3	3	7	12	12	15	15	59
118	15	54	44	204	103	7	3	3	0	0	0	0	3	7	7	12	12	54
123	15	54	44	208	103	12	7	7	3	3	0	0	3	7	7	12	12	54
127	15	54	44	212	103	15	12	12	7	7	3	0	3	7	7	12	12	54
127	12	51	40	212	98	15	12	12	7	7	3	0	0	3	3	7	7	51
127	7	47	36	212	95	15	12	12	7	7	3	0	0	0	0	3	3	47
131	7	47	36	215	95	20	15	15	12	12	7	3	3	3	0	3	3	47
131	3	43	31	215	91	20	15	15	12	12	7	3	3	3	0	0	0	43
135	3	43	31	219	91	24	20	20	15	15	12	7	7	7	3	3	0	43
196	61	48	85	181	48	85	81	81	77	77	73	69	69	69	65	65	61	0
